Title                                   
   1.00000000000000     
     4.9440799999999996    0.0000000000000000    0.0000000000000000
     0.0000000000000000   17.1295089999999988    0.0000000000000000
     0.0000000000000000    0.0000000000000000   20.0000000000000000
    28     3     1
Selective dynamics
Direct
 -0.0001269072779622  0.1045525571959639  0.2849290062530487   T   T   T
  0.2498845235386359  0.1463695321035047  0.2879319366184402   T   T   T
  0.2498752986811213  0.2295631774172352  0.2963981473476321   T   T   T
  0.0017988642470935  0.3525360762095072  0.3165752275008344   T   T   T
 -0.0007718746043069  0.2709627155107165  0.3010405448714140   T   T   T
 -0.0043413221100414  0.6042441541396127  0.3098230864532855   T   T   T
  0.2498632719412293  0.7275162296593320  0.2930455914156076   T   T   T
  0.0003396090413655  0.8532713336325176  0.2827992035314431   T   T   T
  0.2498751177508189  0.8953593775560048  0.2818917595993115   T   T   T
  0.2498792874993635  0.9790670571867521  0.2813682090850412   T   T   T
  0.0006179520884166  0.7697262494958140  0.2875784362162401   T   T   T
  0.4999066202323736  0.1045487925681098  0.2849318874840574   T   T   T
  0.7498928384353648  0.1465410104291323  0.2870844231440781   T   T   T
  0.7498789157364933  0.2295817036055188  0.2944224465285418   T   T   T
  0.5000159749855785  0.0209443128202802  0.2818166645904068   T   T   T
  0.4979729992346140  0.3525330330655701  0.3165690745763270   T   T   T
  0.7498982442092467  0.3978260591187064  0.3215697717888364   T   T   T
  0.7500014379512345  0.4833303807860374  0.3243601600511913   T   T   T
  0.5005179182060574  0.2709597826414588  0.3010325180493804   T   T   T
  0.5042474167396562  0.6042461997821416  0.3099049408559174   T   T   T
  0.7498366817593557  0.7284763914733089  0.2898216791580649   T   T   T
  0.4994229441204236  0.8532815438806867  0.2828142490344249   T   T   T
  0.7498920777690821  0.8951363484328503  0.2813355403736261   T   T   T
  0.7498993968911352  0.9788574569377497  0.2809612524589918   T   T   T
  0.4990674901592967  0.7697446743434067  0.2875996122023506   T   T   T
  0.7499189442523084  0.6458987041748993  0.2996714091726858   T   T   T
  0.2499344290401127  0.6444944261186604  0.3054795035317039   T   T   T
 -0.0002233549594084  0.0209495532781255  0.2818121632181165   T   T   T
  0.5159486724155821  0.5261585606496741  0.3257776814151523   T   T   T
  0.9842326200303678  0.5260976985840723  0.3255025296603041   T   T   T
  0.2499116144347213  0.3859356515432680  0.3308667801761014   T   T   T
  0.2497552975606769  0.4798402556593769  0.3858495636373938   T   T   T
 
  0.00000000E+00  0.00000000E+00  0.00000000E+00
  0.00000000E+00  0.00000000E+00  0.00000000E+00
  0.00000000E+00  0.00000000E+00  0.00000000E+00
  0.00000000E+00  0.00000000E+00  0.00000000E+00
  0.00000000E+00  0.00000000E+00  0.00000000E+00
  0.00000000E+00  0.00000000E+00  0.00000000E+00
  0.00000000E+00  0.00000000E+00  0.00000000E+00
  0.00000000E+00  0.00000000E+00  0.00000000E+00
  0.00000000E+00  0.00000000E+00  0.00000000E+00
  0.00000000E+00  0.00000000E+00  0.00000000E+00
  0.00000000E+00  0.00000000E+00  0.00000000E+00
  0.00000000E+00  0.00000000E+00  0.00000000E+00
  0.00000000E+00  0.00000000E+00  0.00000000E+00
  0.00000000E+00  0.00000000E+00  0.00000000E+00
  0.00000000E+00  0.00000000E+00  0.00000000E+00
  0.00000000E+00  0.00000000E+00  0.00000000E+00
  0.00000000E+00  0.00000000E+00  0.00000000E+00
  0.00000000E+00  0.00000000E+00  0.00000000E+00
  0.00000000E+00  0.00000000E+00  0.00000000E+00
  0.00000000E+00  0.00000000E+00  0.00000000E+00
  0.00000000E+00  0.00000000E+00  0.00000000E+00
  0.00000000E+00  0.00000000E+00  0.00000000E+00
  0.00000000E+00  0.00000000E+00  0.00000000E+00
  0.00000000E+00  0.00000000E+00  0.00000000E+00
  0.00000000E+00  0.00000000E+00  0.00000000E+00
  0.00000000E+00  0.00000000E+00  0.00000000E+00
  0.00000000E+00  0.00000000E+00  0.00000000E+00
  0.00000000E+00  0.00000000E+00  0.00000000E+00
  0.00000000E+00  0.00000000E+00  0.00000000E+00
  0.00000000E+00  0.00000000E+00  0.00000000E+00
  0.00000000E+00  0.00000000E+00  0.00000000E+00
  0.00000000E+00  0.00000000E+00  0.00000000E+00
