Title                                   
   1.00000000000000     
     4.9440799999999996    0.0000000000000000    0.0000000000000000
     0.0000000000000000    8.5647549999999999    0.0000000000000000
     0.0000000000000000    0.0000000000000000   20.0000000000000000
    14     1     1
Selective dynamics
Direct
 -0.0018455786592489  0.2900772503611735  0.0885978327463001   T   T   T
  0.2500000000000000  0.0436353624951950  0.0838679446406674   T   T   T
  0.0008174523488735  0.7971261361108062  0.1014487662582270   T   T   T
 -0.0008139619311755  0.9608037007884402  0.0851275677411834   T   T   T
  0.7500000000000000  0.2067590934431847  0.0778822724833443   T   T   T
  0.5018455786592488  0.2900772503611735  0.0885978327463001   T   T   T
  0.7500000000000000  0.0418050419546960  0.0785883680522520   T   T   T
  0.7500000000000000  0.7096250181229753  0.1062941571636040   T   T   T
  0.4991825476511266  0.7971261361108062  0.1014487662582270   T   T   T
  0.7500000000000000  0.5371803743707815  0.1068945365304146   T   T   T
  0.5008139619311750  0.9608037007884402  0.0851275677411834   T   T   T
  0.5050845977674518  0.4469191971588798  0.1083467336022004   T   T   T
 -0.0050845977674524  0.4469191971588798  0.1083467336022004   T   T   T
  0.2500000000000000  0.7265158385801102  0.1164686237735416   T   T   T
  0.2500000000000000  0.2068199491700223  0.0859624697995623   T   T   T
  0.2500000000000000  0.5378067530244347  0.1895118268608019   T   T   T
 
  0.00000000E+00  0.00000000E+00  0.00000000E+00
  0.00000000E+00  0.00000000E+00  0.00000000E+00
  0.00000000E+00  0.00000000E+00  0.00000000E+00
  0.00000000E+00  0.00000000E+00  0.00000000E+00
  0.00000000E+00  0.00000000E+00  0.00000000E+00
  0.00000000E+00  0.00000000E+00  0.00000000E+00
  0.00000000E+00  0.00000000E+00  0.00000000E+00
  0.00000000E+00  0.00000000E+00  0.00000000E+00
  0.00000000E+00  0.00000000E+00  0.00000000E+00
  0.00000000E+00  0.00000000E+00  0.00000000E+00
  0.00000000E+00  0.00000000E+00  0.00000000E+00
  0.00000000E+00  0.00000000E+00  0.00000000E+00
  0.00000000E+00  0.00000000E+00  0.00000000E+00
  0.00000000E+00  0.00000000E+00  0.00000000E+00
  0.00000000E+00  0.00000000E+00  0.00000000E+00
  0.00000000E+00  0.00000000E+00  0.00000000E+00
