Title                                   
   1.00000000000000     
     9.8694509999999998    0.0000000000000000    0.0000000000000000
     0.0000000000000000    8.5490480000000009    0.0000000000000000
     0.0000000000000000    0.0000000000000000   20.0000000000000000
    26     5     1
Selective dynamics
Direct
  0.0558610859042176  0.0920960890081443  0.0854678319239999   T   T   T
  0.9298400333255321  0.1754003907087957  0.0876384744253111   T   T   T
  0.0564716307579068  0.9235632887974324  0.0846631650745310   T   T   T
  0.9290630548538833  0.3415005352996229  0.0907004099898670   T   T   T
  0.0560649213593756  0.5900129599444750  0.0862318194620930   T   T   T
  0.9316501695642465  0.6719672327929272  0.0872648600772276   T   T   T
  0.0557474611608404  0.4229156218071449  0.0899780394416616   T   T   T
  0.9315323785720672  0.8399567539327146  0.0863578709440727   T   T   T
  0.3055319338696406  0.0891355194173583  0.0871099427825792   T   T   T
  0.1819449806850443  0.1740504973614722  0.0872175475177887   T   T   T
  0.3072705974749347  0.9232011237416179  0.0888938069155001   T   T   T
  0.1815034892242933  0.3397595703803445  0.0913236402796140   T   T   T
  0.3052737488022370  0.5898157901396373  0.0994406948169949   T   T   T
  0.1811804597427589  0.6709547109084675  0.0882521131162333   T   T   T
  0.1821220438083045  0.8390875787255756  0.0866635878625740   T   T   T
  0.5567075734680192  0.0863834774396601  0.0965872595997397   T   T   T
  0.4310660108457903  0.1695380762492132  0.0931876501221045   T   T   T
  0.4321392718802338  0.3344979541264362  0.0993280787230961   T   T   T
  0.4293960399888907  0.8397044082659252  0.1003714374223274   T   T   T
  0.8066647212742550  0.0895033583745195  0.0880142659989906   T   T   T
  0.6812455759990861  0.1710270809845853  0.0939242905877947   T   T   T
  0.8063400223980440  0.9243799601625168  0.0886133253140472   T   T   T
  0.6783313369378891  0.3351511060665741  0.0988609453000455   T   T   T
  0.8064639127350656  0.5931650187292103  0.0956352295460559   T   T   T
  0.6840009841669307  0.8402717445058402  0.0981501400121934   T   T   T
  0.4200402822226485  0.6795544476162192  0.1192202674394750   T   T   T
  0.5546406838825167  0.4069531355063370  0.1129652894022556   T   T   T
  0.6929743219261755  0.6815318351434392  0.1113560521007466   T   T   T
  0.5577520572701934  0.9200861631107645  0.0991946428905703   T   T   T
  0.3086323510048131  0.4214806506196452  0.0968278941462613   T   T   T
  0.8012147192748407  0.4254746492562907  0.0944758370806783   T   T   T
  0.5609711456193301  0.5881252708770933  0.1717585896835857   T   T   T
 
  0.00000000E+00  0.00000000E+00  0.00000000E+00
  0.00000000E+00  0.00000000E+00  0.00000000E+00
  0.00000000E+00  0.00000000E+00  0.00000000E+00
  0.00000000E+00  0.00000000E+00  0.00000000E+00
  0.00000000E+00  0.00000000E+00  0.00000000E+00
  0.00000000E+00  0.00000000E+00  0.00000000E+00
  0.00000000E+00  0.00000000E+00  0.00000000E+00
  0.00000000E+00  0.00000000E+00  0.00000000E+00
  0.00000000E+00  0.00000000E+00  0.00000000E+00
  0.00000000E+00  0.00000000E+00  0.00000000E+00
  0.00000000E+00  0.00000000E+00  0.00000000E+00
  0.00000000E+00  0.00000000E+00  0.00000000E+00
  0.00000000E+00  0.00000000E+00  0.00000000E+00
  0.00000000E+00  0.00000000E+00  0.00000000E+00
  0.00000000E+00  0.00000000E+00  0.00000000E+00
  0.00000000E+00  0.00000000E+00  0.00000000E+00
  0.00000000E+00  0.00000000E+00  0.00000000E+00
  0.00000000E+00  0.00000000E+00  0.00000000E+00
  0.00000000E+00  0.00000000E+00  0.00000000E+00
  0.00000000E+00  0.00000000E+00  0.00000000E+00
  0.00000000E+00  0.00000000E+00  0.00000000E+00
  0.00000000E+00  0.00000000E+00  0.00000000E+00
  0.00000000E+00  0.00000000E+00  0.00000000E+00
  0.00000000E+00  0.00000000E+00  0.00000000E+00
  0.00000000E+00  0.00000000E+00  0.00000000E+00
  0.00000000E+00  0.00000000E+00  0.00000000E+00
  0.00000000E+00  0.00000000E+00  0.00000000E+00
  0.00000000E+00  0.00000000E+00  0.00000000E+00
  0.00000000E+00  0.00000000E+00  0.00000000E+00
  0.00000000E+00  0.00000000E+00  0.00000000E+00
  0.00000000E+00  0.00000000E+00  0.00000000E+00
  0.00000000E+00  0.00000000E+00  0.00000000E+00
