Title                                   
   1.00000000000000     
     9.8694509999999998    0.0000000000000000    0.0000000000000000
     0.0000000000000000    8.5490480000000009    0.0000000000000000
     0.0000000000000000    0.0000000000000000   20.0000000000000000
    29     2     1
Selective dynamics
Direct
  0.0565948665639053  0.0907692786499845  0.0832649213078252   T   T   T
  0.9311322243586393  0.1730087065445153  0.0865129296269028   T   T   T
  0.0557923494677956  0.9235546962834233  0.0828706282121321   T   T   T
  0.9311467262129700  0.3399956143630145  0.0910376253045303   T   T   T
  0.0565830634831960  0.5893080920549908  0.0871344852370178   T   T   T
  0.9317460151647387  0.6722942732034068  0.0901722291687256   T   T   T
  0.0569254042761088  0.4231768586666029  0.0884302994402769   T   T   T
  0.9307151854444002  0.8389459746653694  0.0860607112729284   T   T   T
  0.3059516864530653  0.0901894294577839  0.0857436659243234   T   T   T
  0.1820440718562205  0.1746017784119917  0.0852769994693596   T   T   T
  0.3058537739406315  0.9245591578205875  0.0857146176292160   T   T   T
  0.1832255993048755  0.3420235735596571  0.0888844818377858   T   T   T
  0.3052526206429558  0.5939406377137600  0.0968874621801160   T   T   T
  0.1808887715475034  0.6736800043528423  0.0872804464721425   T   T   T
  0.3087913889266446  0.4254434595938678  0.0969543483028795   T   T   T
  0.1807450844233320  0.8403203885040490  0.0845674359449424   T   T   T
  0.5558987900721846  0.0855877101776725  0.0953282807033813   T   T   T
  0.4315399281162045  0.1699377055166111  0.0930757454375627   T   T   T
  0.4322515213388860  0.3350738620047491  0.1031503387146144   T   T   T
  0.5570493968731104  0.4046474202382121  0.1220393972286231   T   T   T
  0.4281801539068124  0.8405045990157086  0.0960149433863876   T   T   T
  0.8071635733216975  0.0883451870900186  0.0876737079295327   T   T   T
  0.6817236453990783  0.1677158743659751  0.0955815932995871   T   T   T
  0.8052753693135547  0.9224997233042649  0.0876077791199111   T   T   T
  0.6827845182516294  0.3326712874963150  0.1067276084015209   T   T   T
  0.8089919673904187  0.5903524119627275  0.1036276836562395   T   T   T
  0.6909870861483733  0.6812899513667104  0.1187286152336960   T   T   T
  0.8069332091459975  0.4216428083645452  0.1020335790323903   T   T   T
  0.6823063484925933  0.8390637812926901  0.0993840509565643   T   T   T
  0.4211138702233442  0.6842958429408037  0.1099517793161841   T   T   T
  0.5544294851190279  0.9193159488391534  0.0973812170103788   T   T   T
  0.5496213048201108  0.5914899621779871  0.1785753932423669   T   T   T
 
  0.00000000E+00  0.00000000E+00  0.00000000E+00
  0.00000000E+00  0.00000000E+00  0.00000000E+00
  0.00000000E+00  0.00000000E+00  0.00000000E+00
  0.00000000E+00  0.00000000E+00  0.00000000E+00
  0.00000000E+00  0.00000000E+00  0.00000000E+00
  0.00000000E+00  0.00000000E+00  0.00000000E+00
  0.00000000E+00  0.00000000E+00  0.00000000E+00
  0.00000000E+00  0.00000000E+00  0.00000000E+00
  0.00000000E+00  0.00000000E+00  0.00000000E+00
  0.00000000E+00  0.00000000E+00  0.00000000E+00
  0.00000000E+00  0.00000000E+00  0.00000000E+00
  0.00000000E+00  0.00000000E+00  0.00000000E+00
  0.00000000E+00  0.00000000E+00  0.00000000E+00
  0.00000000E+00  0.00000000E+00  0.00000000E+00
  0.00000000E+00  0.00000000E+00  0.00000000E+00
  0.00000000E+00  0.00000000E+00  0.00000000E+00
  0.00000000E+00  0.00000000E+00  0.00000000E+00
  0.00000000E+00  0.00000000E+00  0.00000000E+00
  0.00000000E+00  0.00000000E+00  0.00000000E+00
  0.00000000E+00  0.00000000E+00  0.00000000E+00
  0.00000000E+00  0.00000000E+00  0.00000000E+00
  0.00000000E+00  0.00000000E+00  0.00000000E+00
  0.00000000E+00  0.00000000E+00  0.00000000E+00
  0.00000000E+00  0.00000000E+00  0.00000000E+00
  0.00000000E+00  0.00000000E+00  0.00000000E+00
  0.00000000E+00  0.00000000E+00  0.00000000E+00
  0.00000000E+00  0.00000000E+00  0.00000000E+00
  0.00000000E+00  0.00000000E+00  0.00000000E+00
  0.00000000E+00  0.00000000E+00  0.00000000E+00
  0.00000000E+00  0.00000000E+00  0.00000000E+00
  0.00000000E+00  0.00000000E+00  0.00000000E+00
  0.00000000E+00  0.00000000E+00  0.00000000E+00
