Title                                   
   1.00000000000000     
     9.8694509999999998    0.0000000000000000    0.0000000000000000
     0.0000000000000000    8.5490480000000009    0.0000000000000000
     0.0000000000000000    0.0000000000000000   20.0000000000000000
    30     1     1
Selective dynamics
Direct
  0.0557188543173991  0.0898695301802786  0.0855933261400872   T   T   T
  0.9314793210205551  0.1725212005372484  0.0868517906065545   T   T   T
  0.0571385859048175  0.9234670541745637  0.0859190085437033   T   T   T
  0.9310995842856196  0.3400625048082900  0.0888499271382013   T   T   T
  0.0567610137216926  0.5898525170047815  0.0868108851152418   T   T   T
  0.9323415241963275  0.6727976879369135  0.0889755020911286   T   T   T
  0.0568600156683522  0.4229309603011199  0.0872222054094225   T   T   T
  0.9319879519861252  0.8392238139111252  0.0877056302302287   T   T   T
  0.3052420626202062  0.0883877449742502  0.0898707216628291   T   T   T
  0.1813941615845691  0.1717358133672393  0.0871984607967482   T   T   T
  0.1820677035821767  0.3393928698723218  0.0887668240847708   T   T   T
  0.3046211026450212  0.5895666766529722  0.0980245578274181   T   T   T
  0.1818164319799295  0.6740212691896731  0.0891060592077344   T   T   T
  0.3056032298313153  0.4222634167149312  0.0959801968382205   T   T   T
  0.1818262028572467  0.8406674125551759  0.0882643462968772   T   T   T
  0.5562608436612291  0.0879831098680454  0.0944995210611793   T   T   T
  0.4304454925391755  0.1702438667626188  0.0942140312440172   T   T   T
  0.5549352980475991  0.9232082201561381  0.0974448470296056   T   T   T
  0.4302041356919832  0.3363472832174311  0.1005652114580244   T   T   T
  0.4218958101708103  0.6794171695810503  0.1111979619037692   T   T   T
  0.5561842709723739  0.4110491751749253  0.1118579392711396   T   T   T
  0.4278661526352808  0.8414554358351409  0.1002214963896556   T   T   T
  0.8067346690665759  0.0889801254827460  0.0888035578303496   T   T   T
  0.6817074150375342  0.1710924436282998  0.0934180997080061   T   T   T
  0.8068546592672180  0.9229076540892165  0.0900367152895852   T   T   T
  0.6817527276556813  0.3368834288562974  0.1003378149113377   T   T   T
  0.8081617773208974  0.5895242860731501  0.0975986406385409   T   T   T
  0.6892897306880672  0.6774337269518236  0.1089976412211238   T   T   T
  0.8074551131136615  0.4218571460898413  0.0960510629348212   T   T   T
  0.6816135251530258  0.8401762596384954  0.0982830000513561   T   T   T
  0.3051234017380770  0.9241331046146978  0.0910933886077301   T   T   T
  0.5571962310394626  0.5907930917992082  0.1559146284606264   T   T   T
 
  0.00000000E+00  0.00000000E+00  0.00000000E+00
  0.00000000E+00  0.00000000E+00  0.00000000E+00
  0.00000000E+00  0.00000000E+00  0.00000000E+00
  0.00000000E+00  0.00000000E+00  0.00000000E+00
  0.00000000E+00  0.00000000E+00  0.00000000E+00
  0.00000000E+00  0.00000000E+00  0.00000000E+00
  0.00000000E+00  0.00000000E+00  0.00000000E+00
  0.00000000E+00  0.00000000E+00  0.00000000E+00
  0.00000000E+00  0.00000000E+00  0.00000000E+00
  0.00000000E+00  0.00000000E+00  0.00000000E+00
  0.00000000E+00  0.00000000E+00  0.00000000E+00
  0.00000000E+00  0.00000000E+00  0.00000000E+00
  0.00000000E+00  0.00000000E+00  0.00000000E+00
  0.00000000E+00  0.00000000E+00  0.00000000E+00
  0.00000000E+00  0.00000000E+00  0.00000000E+00
  0.00000000E+00  0.00000000E+00  0.00000000E+00
  0.00000000E+00  0.00000000E+00  0.00000000E+00
  0.00000000E+00  0.00000000E+00  0.00000000E+00
  0.00000000E+00  0.00000000E+00  0.00000000E+00
  0.00000000E+00  0.00000000E+00  0.00000000E+00
  0.00000000E+00  0.00000000E+00  0.00000000E+00
  0.00000000E+00  0.00000000E+00  0.00000000E+00
  0.00000000E+00  0.00000000E+00  0.00000000E+00
  0.00000000E+00  0.00000000E+00  0.00000000E+00
  0.00000000E+00  0.00000000E+00  0.00000000E+00
  0.00000000E+00  0.00000000E+00  0.00000000E+00
  0.00000000E+00  0.00000000E+00  0.00000000E+00
  0.00000000E+00  0.00000000E+00  0.00000000E+00
  0.00000000E+00  0.00000000E+00  0.00000000E+00
  0.00000000E+00  0.00000000E+00  0.00000000E+00
  0.00000000E+00  0.00000000E+00  0.00000000E+00
  0.00000000E+00  0.00000000E+00  0.00000000E+00
