Title                                   
   1.00000000000000     
     9.8694509999999998    0.0000000000000000    0.0000000000000000
     0.0000000000000000    8.5490480000000009    0.0000000000000000
     0.0000000000000000    0.0000000000000000   20.0000000000000000
    24     6     1
Selective dynamics
Direct
  0.0546676755660231  0.0908175425987205  0.0954221212376904   T   T   T
  0.9294087705630482  0.1743995108734324  0.0906645410287795   T   T   T
  0.0564671608376077  0.9217724113712173  0.0949779712623014   T   T   T
  0.9314390491773455  0.3405271351004771  0.0916612927228850   T   T   T
  0.0557066607396907  0.5909241803316694  0.0963316305898648   T   T   T
  0.0550126072851724  0.4237329399913925  0.0967849170955567   T   T   T
  0.9318680337303078  0.8391380677729040  0.0913168315024948   T   T   T
  0.3073707028168333  0.0889619214958708  0.1014129985957926   T   T   T
  0.1795804441500168  0.1717704373952671  0.1005446660567179   T   T   T
  0.1800633159343254  0.3395889288075541  0.1013533322742395   T   T   T
  0.3036530775731352  0.5882981814273137  0.1062014956129585   T   T   T
  0.1795302796693882  0.6724504513698869  0.0997766896344365   T   T   T
  0.3047788580508531  0.4211996009518041  0.1073941136650728   T   T   T
  0.1813749083734359  0.8406856884859067  0.0986382081339376   T   T   T
  0.4290162189875586  0.1743005805686168  0.1031884698357509   T   T   T
  0.5526793779213443  0.9190743809691690  0.0945701232883711   T   T   T
  0.4290175098776526  0.8342132909495500  0.1030626002786214   T   T   T
  0.8035968834481507  0.0890909307197635  0.0866036417682250   T   T   T
  0.6781684615987177  0.1721794243986690  0.0850247174900586   T   T   T
  0.8058859375403771  0.9219826019682797  0.0876118957242589   T   T   T
  0.6807177039911269  0.3373218210669899  0.0807735801671761   T   T   T
  0.8084902883170022  0.5937671023170671  0.0848293982267262   T   T   T
  0.8059452540533815  0.4250791143542103  0.0840345148317607   T   T   T
  0.6806999962074818  0.8406862057580816  0.0870458982926016   T   T   T
  0.9325442284238112  0.6738541490704094  0.0920161977788613   T   T   T
  0.5536457920010210  0.0912302584156387  0.0944466481169653   T   T   T
  0.4272313118277825  0.3379625308842331  0.1146837555208678   T   T   T
  0.6880203402052679  0.6777971537238270  0.0844931869910763   T   T   T
  0.4242775254610911  0.6728260334820459  0.1134946636144693   T   T   T
  0.3049121017940680  0.9205367067883783  0.1001778173261057   T   T   T
  0.5873645238769928  0.5047057165916664  0.1324270813354123   T   T   T
 
  0.00000000E+00  0.00000000E+00  0.00000000E+00
  0.00000000E+00  0.00000000E+00  0.00000000E+00
  0.00000000E+00  0.00000000E+00  0.00000000E+00
  0.00000000E+00  0.00000000E+00  0.00000000E+00
  0.00000000E+00  0.00000000E+00  0.00000000E+00
  0.00000000E+00  0.00000000E+00  0.00000000E+00
  0.00000000E+00  0.00000000E+00  0.00000000E+00
  0.00000000E+00  0.00000000E+00  0.00000000E+00
  0.00000000E+00  0.00000000E+00  0.00000000E+00
  0.00000000E+00  0.00000000E+00  0.00000000E+00
  0.00000000E+00  0.00000000E+00  0.00000000E+00
  0.00000000E+00  0.00000000E+00  0.00000000E+00
  0.00000000E+00  0.00000000E+00  0.00000000E+00
  0.00000000E+00  0.00000000E+00  0.00000000E+00
  0.00000000E+00  0.00000000E+00  0.00000000E+00
  0.00000000E+00  0.00000000E+00  0.00000000E+00
  0.00000000E+00  0.00000000E+00  0.00000000E+00
  0.00000000E+00  0.00000000E+00  0.00000000E+00
  0.00000000E+00  0.00000000E+00  0.00000000E+00
  0.00000000E+00  0.00000000E+00  0.00000000E+00
  0.00000000E+00  0.00000000E+00  0.00000000E+00
  0.00000000E+00  0.00000000E+00  0.00000000E+00
  0.00000000E+00  0.00000000E+00  0.00000000E+00
  0.00000000E+00  0.00000000E+00  0.00000000E+00
  0.00000000E+00  0.00000000E+00  0.00000000E+00
  0.00000000E+00  0.00000000E+00  0.00000000E+00
  0.00000000E+00  0.00000000E+00  0.00000000E+00
  0.00000000E+00  0.00000000E+00  0.00000000E+00
  0.00000000E+00  0.00000000E+00  0.00000000E+00
  0.00000000E+00  0.00000000E+00  0.00000000E+00
  0.00000000E+00  0.00000000E+00  0.00000000E+00
