Title                                   
   1.00000000000000     
     9.8694509999999998    0.0000000000000000    0.0000000000000000
     0.0000000000000000    8.5490480000000009    0.0000000000000000
     0.0000000000000000    0.0000000000000000   20.0000000000000000
    25     5     1
Selective dynamics
Direct
  0.0557450949973320  0.0893107637883497  0.0931324987724749   T   T   T
  0.9309621693519469  0.1737066672015764  0.0956327886102613   T   T   T
  0.0581701261615761  0.9208866166134191  0.0931320064920222   T   T   T
  0.9324959943335878  0.3411014941073782  0.0970716590517272   T   T   T
  0.0570845294968692  0.5907443662411641  0.0944497330651756   T   T   T
  0.0565101243742370  0.4236649186809299  0.0944447996108848   T   T   T
  0.9331176977863773  0.8401507770117981  0.0966909550411994   T   T   T
  0.3076398087171976  0.0868701731822761  0.0889259425382678   T   T   T
  0.1808024676279253  0.1705845549720647  0.0910901913669261   T   T   T
  0.1801761412034545  0.3372555829399677  0.0915862545955003   T   T   T
  0.3068469449250337  0.5859162708265802  0.0839238731115670   T   T   T
  0.1813827907720069  0.6720696338515096  0.0902662913654418   T   T   T
  0.3053715751780396  0.4169262311436119  0.0872609545446547   T   T   T
  0.1834525634109554  0.8388525911337641  0.0898952941621827   T   T   T
  0.4300486440707937  0.1706712769527271  0.0893451041537052   T   T   T
  0.5576429865816339  0.9215870329703243  0.0940635452437613   T   T   T
  0.4295870325606784  0.6745889952817854  0.0793858712592464   T   T   T
  0.4316606336715036  0.8371843192714400  0.0860813598202436   T   T   T
  0.8048207778871259  0.0905665070315197  0.0963432925598901   T   T   T
  0.6805903917039983  0.1794770900036343  0.0976771895598559   T   T   T
  0.8075245704188920  0.9226789690024967  0.0975810895368317   T   T   T
  0.6826944261190853  0.3451441185983373  0.1032135229276324   T   T   T
  0.8104267517832853  0.5948981185205531  0.1033101953390487   T   T   T
  0.8087362960640546  0.4255565054394048  0.1015955977057885   T   T   T
  0.6822758097195110  0.8379269562273302  0.1002764239787260   T   T   T
  0.9331562139114020  0.6734909441024169  0.0978066530025148   T   T   T
  0.5568666110260950  0.0925459791128433  0.0933178870690362   T   T   T
  0.4263857199322753  0.3321951345770439  0.0882767353099237   T   T   T
  0.6903070230999088  0.6741241233178917  0.1089545699518254   T   T   T
  0.3065155917072204  0.9214228205500767  0.0875305729282834   T   T   T
  0.5341374914059974  0.5087754673458100  0.1287021473254350   T   T   T
 
  0.00000000E+00  0.00000000E+00  0.00000000E+00
  0.00000000E+00  0.00000000E+00  0.00000000E+00
  0.00000000E+00  0.00000000E+00  0.00000000E+00
  0.00000000E+00  0.00000000E+00  0.00000000E+00
  0.00000000E+00  0.00000000E+00  0.00000000E+00
  0.00000000E+00  0.00000000E+00  0.00000000E+00
  0.00000000E+00  0.00000000E+00  0.00000000E+00
  0.00000000E+00  0.00000000E+00  0.00000000E+00
  0.00000000E+00  0.00000000E+00  0.00000000E+00
  0.00000000E+00  0.00000000E+00  0.00000000E+00
  0.00000000E+00  0.00000000E+00  0.00000000E+00
  0.00000000E+00  0.00000000E+00  0.00000000E+00
  0.00000000E+00  0.00000000E+00  0.00000000E+00
  0.00000000E+00  0.00000000E+00  0.00000000E+00
  0.00000000E+00  0.00000000E+00  0.00000000E+00
  0.00000000E+00  0.00000000E+00  0.00000000E+00
  0.00000000E+00  0.00000000E+00  0.00000000E+00
  0.00000000E+00  0.00000000E+00  0.00000000E+00
  0.00000000E+00  0.00000000E+00  0.00000000E+00
  0.00000000E+00  0.00000000E+00  0.00000000E+00
  0.00000000E+00  0.00000000E+00  0.00000000E+00
  0.00000000E+00  0.00000000E+00  0.00000000E+00
  0.00000000E+00  0.00000000E+00  0.00000000E+00
  0.00000000E+00  0.00000000E+00  0.00000000E+00
  0.00000000E+00  0.00000000E+00  0.00000000E+00
  0.00000000E+00  0.00000000E+00  0.00000000E+00
  0.00000000E+00  0.00000000E+00  0.00000000E+00
  0.00000000E+00  0.00000000E+00  0.00000000E+00
  0.00000000E+00  0.00000000E+00  0.00000000E+00
  0.00000000E+00  0.00000000E+00  0.00000000E+00
  0.00000000E+00  0.00000000E+00  0.00000000E+00
