Title                                   
   1.00000000000000     
     9.8694509999999998    0.0000000000000000    0.0000000000000000
     0.0000000000000000    8.5490480000000009    0.0000000000000000
     0.0000000000000000    0.0000000000000000   20.0000000000000000
    28     3     1
Selective dynamics
Direct
  0.0562372358765598  0.0919022356627358  0.0847327392071084   T   T   T
  0.9309244878239662  0.1746439322631910  0.0872154037746281   T   T   T
  0.0562235117820829  0.9243700271822827  0.0832797618441359   T   T   T
  0.9297753499462402  0.3409934082142273  0.0908076809183582   T   T   T
  0.0562394967033122  0.5893112760275337  0.0861725710267484   T   T   T
  0.9324524281838588  0.6735709435928798  0.0869879690287246   T   T   T
  0.0562347885004181  0.4228451207135147  0.0891880956025337   T   T   T
  0.9322865720341289  0.8401471761235838  0.0851433280379851   T   T   T
  0.3057994916487326  0.0892398090461852  0.0878358944964473   T   T   T
  0.1815500976564774  0.1746348710819336  0.0872144411363750   T   T   T
  0.3050131978845651  0.9237466599964875  0.0878816704424361   T   T   T
  0.1826984086024331  0.3409870912243018  0.0907974665089897   T   T   T
  0.3047660864406112  0.5932237398234201  0.0965330266107385   T   T   T
  0.1800243660566491  0.6735790166594799  0.0869709650687640   T   T   T
  0.3095522666753783  0.4247905250851938  0.0971252014092676   T   T   T
  0.1801608284166423  0.8401560571051339  0.0851245241476540   T   T   T
  0.5562447885990964  0.0842590994982564  0.0950740963088347   T   T   T
  0.4314614413715038  0.1692075465226569  0.0927913812955318   T   T   T
  0.5562350231180233  0.9171116471081554  0.0988468389075821   T   T   T
  0.4337942455733574  0.3344602477333015  0.0989391325182110   T   T   T
  0.4267437363191484  0.8379523654465386  0.0974678282461415   T   T   T
  0.8066878552249799  0.0892357775264010  0.0878492597464303   T   T   T
  0.6810460792771039  0.1692065634052537  0.0928102452740433   T   T   T
  0.8074454702539721  0.9237351826452384  0.0879052881449156   T   T   T
  0.6787029351081488  0.3344600728944361  0.0989484735166332   T   T   T
  0.8077390186958989  0.5932143682917685  0.0965859806289897   T   T   T
  0.8029303772942751  0.4247867146812909  0.0971509557660922   T   T   T
  0.6857354143991808  0.8379426356233680  0.0975223673546824   T   T   T
  0.4196540153522529  0.6802648274170050  0.1079859657304167   T   T   T
  0.5562464010852912  0.4071993297160555  0.1091181880726941   T   T   T
  0.6929074151807514  0.6802716051779136  0.1080973551022302   T   T   T
  0.5561261689149649  0.5887961265102845  0.1855709041257112   T   T   T
 
  0.00000000E+00  0.00000000E+00  0.00000000E+00
  0.00000000E+00  0.00000000E+00  0.00000000E+00
  0.00000000E+00  0.00000000E+00  0.00000000E+00
  0.00000000E+00  0.00000000E+00  0.00000000E+00
  0.00000000E+00  0.00000000E+00  0.00000000E+00
  0.00000000E+00  0.00000000E+00  0.00000000E+00
  0.00000000E+00  0.00000000E+00  0.00000000E+00
  0.00000000E+00  0.00000000E+00  0.00000000E+00
  0.00000000E+00  0.00000000E+00  0.00000000E+00
  0.00000000E+00  0.00000000E+00  0.00000000E+00
  0.00000000E+00  0.00000000E+00  0.00000000E+00
  0.00000000E+00  0.00000000E+00  0.00000000E+00
  0.00000000E+00  0.00000000E+00  0.00000000E+00
  0.00000000E+00  0.00000000E+00  0.00000000E+00
  0.00000000E+00  0.00000000E+00  0.00000000E+00
  0.00000000E+00  0.00000000E+00  0.00000000E+00
  0.00000000E+00  0.00000000E+00  0.00000000E+00
  0.00000000E+00  0.00000000E+00  0.00000000E+00
  0.00000000E+00  0.00000000E+00  0.00000000E+00
  0.00000000E+00  0.00000000E+00  0.00000000E+00
  0.00000000E+00  0.00000000E+00  0.00000000E+00
  0.00000000E+00  0.00000000E+00  0.00000000E+00
  0.00000000E+00  0.00000000E+00  0.00000000E+00
  0.00000000E+00  0.00000000E+00  0.00000000E+00
  0.00000000E+00  0.00000000E+00  0.00000000E+00
  0.00000000E+00  0.00000000E+00  0.00000000E+00
  0.00000000E+00  0.00000000E+00  0.00000000E+00
  0.00000000E+00  0.00000000E+00  0.00000000E+00
  0.00000000E+00  0.00000000E+00  0.00000000E+00
  0.00000000E+00  0.00000000E+00  0.00000000E+00
  0.00000000E+00  0.00000000E+00  0.00000000E+00
  0.00000000E+00  0.00000000E+00  0.00000000E+00
