Title                                   
   1.00000000000000     
     8.5490480000000009    0.0000000000000000    0.0000000000000000
     0.0000000000000000    8.5490480000000009    0.0000000000000000
     0.0000000000000000    0.0000000000000000   20.0000000000000000
    22     2     1
Selective dynamics
Direct
  0.9086128093690466  0.2081595454190038  0.0950667833488155   T   T   T
  0.9066855957366041  0.5044232052406604  0.0970142727989984   T   T   T
  0.9125039837267068  0.8031840888684587  0.0968218353300785   T   T   T
  0.1990321338922430  0.0819149856707528  0.0964604409270660   T   T   T
  0.0736926533497245  0.2051217959860502  0.0963761235278396   T   T   T
  0.1582436185395971  0.6493936106094308  0.0963855712361676   T   T   T
  0.0754221175464162  0.5020767229147408  0.0972009931713523   T   T   T
  0.1547234164075009  0.3547002961496961  0.0984664671793795   T   T   T
  0.0796100165472681  0.7979683278102652  0.0958244635886777   T   T   T
  0.4934265396577930  0.0829802024721041  0.0970346245472150   T   T   T
  0.3454699955122605  0.1614822769357350  0.0983409678039733   T   T   T
  0.4939053852816537  0.9148592328809242  0.0969288506724820   T   T   T
  0.3478268144381800  0.8344665185274189  0.0958487955756325   T   T   T
  0.7864706024461278  0.0867084894087868  0.0952361189816340   T   T   T
  0.6376203561722323  0.1659512451210072  0.0960877003002218   T   T   T
  0.7904150168539090  0.9213210201870915  0.0965058971361696   T   T   T
  0.8294729608045254  0.6544575157066210  0.0986006458459293   T   T   T
  0.8269439765471822  0.3582635632178001  0.0957889888222675   T   T   T
  0.6431344890983379  0.8358979863579536  0.0983066734290872   T   T   T
  0.3235783407260817  0.3316946093588878  0.1029450134245333   T   T   T
  0.3246440773631454  0.6702401812507662  0.0973344461200164   T   T   T
  0.6589735947309768  0.3347109462254962  0.0988861424232241   T   T   T
  0.6684606127147065  0.6763511293880247  0.1014405762210397   T   T   T
  0.1996403119347772  0.9172664114929117  0.0952151310067864   T   T   T
  0.4869025806029959  0.4911960927994249  0.1145874765813955   T   T   T
 
  0.00000000E+00  0.00000000E+00  0.00000000E+00
  0.00000000E+00  0.00000000E+00  0.00000000E+00
  0.00000000E+00  0.00000000E+00  0.00000000E+00
  0.00000000E+00  0.00000000E+00  0.00000000E+00
  0.00000000E+00  0.00000000E+00  0.00000000E+00
  0.00000000E+00  0.00000000E+00  0.00000000E+00
  0.00000000E+00  0.00000000E+00  0.00000000E+00
  0.00000000E+00  0.00000000E+00  0.00000000E+00
  0.00000000E+00  0.00000000E+00  0.00000000E+00
  0.00000000E+00  0.00000000E+00  0.00000000E+00
  0.00000000E+00  0.00000000E+00  0.00000000E+00
  0.00000000E+00  0.00000000E+00  0.00000000E+00
  0.00000000E+00  0.00000000E+00  0.00000000E+00
  0.00000000E+00  0.00000000E+00  0.00000000E+00
  0.00000000E+00  0.00000000E+00  0.00000000E+00
  0.00000000E+00  0.00000000E+00  0.00000000E+00
  0.00000000E+00  0.00000000E+00  0.00000000E+00
  0.00000000E+00  0.00000000E+00  0.00000000E+00
  0.00000000E+00  0.00000000E+00  0.00000000E+00
  0.00000000E+00  0.00000000E+00  0.00000000E+00
  0.00000000E+00  0.00000000E+00  0.00000000E+00
  0.00000000E+00  0.00000000E+00  0.00000000E+00
  0.00000000E+00  0.00000000E+00  0.00000000E+00
  0.00000000E+00  0.00000000E+00  0.00000000E+00
  0.00000000E+00  0.00000000E+00  0.00000000E+00
