Title                                   
   1.00000000000000     
     9.8694509999999998    0.0000000000000000    0.0000000000000000
     0.0000000000000000    8.5490480000000009    0.0000000000000000
     0.0000000000000000    0.0000000000000000   20.0000000000000000
    29     1     1
Selective dynamics
Direct
  0.0562296015874119  0.0894051225167277  0.0857433095484688   T   T   T
  0.9313754938090938  0.1722740288258166  0.0811292608630325   T   T   T
  0.0572925010362796  0.9236346902981522  0.0858180355883819   T   T   T
  0.9333553546420924  0.3392416868002229  0.0803130679302800   T   T   T
  0.0574635229209457  0.5903856318873524  0.0861015909397032   T   T   T
  0.9333055060476271  0.6733244908477598  0.0803501293290123   T   T   T
  0.0575647954670237  0.4227015522890987  0.0862796758017852   T   T   T
  0.9318156354075819  0.8397937738873320  0.0814221697003897   T   T   T
  0.3047319742486793  0.0882654125351567  0.1006629641567188   T   T   T
  0.1806112213840559  0.1715755387665615  0.0937093408884369   T   T   T
  0.1808235188315180  0.3389875150862084  0.0957884732035843   T   T   T
  0.3023628272230830  0.5921635396522029  0.1123041172163398   T   T   T
  0.1815876369227379  0.6738003806604834  0.0952008149333908   T   T   T
  0.3024309384545983  0.4198694265880931  0.1125183814492601   T   T   T
  0.1817537920885636  0.8408398602056273  0.0931128475329286   T   T   T
  0.5556415641696039  0.0888621275701970  0.1003572425962700   T   T   T
  0.4283377121254239  0.1724155671753655  0.1103566433951823   T   T   T
  0.5543704302538766  0.9236566905582003  0.0999532955266646   T   T   T
  0.4233831898997196  0.3351173991126099  0.1241555794220539   T   T   T
  0.4223843816433300  0.6784674142212563  0.1243096924980834   T   T   T
  0.4271483575766840  0.8388449048171384  0.1098942907425621   T   T   T
  0.8056850949925329  0.0890275523094704  0.0815840518291618   T   T   T
  0.6805509788363250  0.1749493997927640  0.0871228185204551   T   T   T
  0.8056406262342304  0.9225194941687833  0.0817728762197885   T   T   T
  0.6830987250682334  0.3395745475277751  0.0823642250874397   T   T   T
  0.8073052203896504  0.5918723216389856  0.0769120950756332   T   T   T
  0.6826425631792996  0.6722208827255127  0.0817102581100576   T   T   T
  0.8074626137531388  0.4205098725503049  0.0769263897763741   T   T   T
  0.6798031352727834  0.8365868082410610  0.0869880712433291   T   T   T
  0.3041141547255305  0.9234341919912098  0.0996553601817446   T   T   T
  0.5828619318083474  0.5065531747525891  0.1464479306935138   T   T   T
 
  0.00000000E+00  0.00000000E+00  0.00000000E+00
  0.00000000E+00  0.00000000E+00  0.00000000E+00
  0.00000000E+00  0.00000000E+00  0.00000000E+00
  0.00000000E+00  0.00000000E+00  0.00000000E+00
  0.00000000E+00  0.00000000E+00  0.00000000E+00
  0.00000000E+00  0.00000000E+00  0.00000000E+00
  0.00000000E+00  0.00000000E+00  0.00000000E+00
  0.00000000E+00  0.00000000E+00  0.00000000E+00
  0.00000000E+00  0.00000000E+00  0.00000000E+00
  0.00000000E+00  0.00000000E+00  0.00000000E+00
  0.00000000E+00  0.00000000E+00  0.00000000E+00
  0.00000000E+00  0.00000000E+00  0.00000000E+00
  0.00000000E+00  0.00000000E+00  0.00000000E+00
  0.00000000E+00  0.00000000E+00  0.00000000E+00
  0.00000000E+00  0.00000000E+00  0.00000000E+00
  0.00000000E+00  0.00000000E+00  0.00000000E+00
  0.00000000E+00  0.00000000E+00  0.00000000E+00
  0.00000000E+00  0.00000000E+00  0.00000000E+00
  0.00000000E+00  0.00000000E+00  0.00000000E+00
  0.00000000E+00  0.00000000E+00  0.00000000E+00
  0.00000000E+00  0.00000000E+00  0.00000000E+00
  0.00000000E+00  0.00000000E+00  0.00000000E+00
  0.00000000E+00  0.00000000E+00  0.00000000E+00
  0.00000000E+00  0.00000000E+00  0.00000000E+00
  0.00000000E+00  0.00000000E+00  0.00000000E+00
  0.00000000E+00  0.00000000E+00  0.00000000E+00
  0.00000000E+00  0.00000000E+00  0.00000000E+00
  0.00000000E+00  0.00000000E+00  0.00000000E+00
  0.00000000E+00  0.00000000E+00  0.00000000E+00
  0.00000000E+00  0.00000000E+00  0.00000000E+00
  0.00000000E+00  0.00000000E+00  0.00000000E+00
