Title                                   
   1.00000000000000     
     4.9440799999999996    0.0000000000000000    0.0000000000000000
     0.0000000000000000   17.1295089999999988    0.0000000000000000
     0.0000000000000000    0.0000000000000000   20.0000000000000000
    25     5     1
Selective dynamics
Direct
  0.0001436848760389  0.1059121323101465  0.2959950564235790   T   T   T
  0.2490201190778341  0.1488351399015456  0.2966079942995642   T   T   T
  0.2481855032517254  0.2339593249769731  0.2992649112155949   T   T   T
 -0.0033302165224508  0.2758620664998400  0.3030476878741777   T   T   T
 -0.0029918964251420  0.6001709223291689  0.3032878659398425   T   T   T
  0.2488471722537970  0.7255075058725281  0.2966727355428810   T   T   T
  0.0003858006339520  0.8525834407308787  0.2956170632019688   T   T   T
  0.2494333258868114  0.8948907719670171  0.2953130956708401   T   T   T
  0.2494883892557754  0.9793234609989039  0.2951768919999060   T   T   T
  0.0003870014223708  0.7678182563920235  0.2962791348344367   T   T   T
  0.4990427179401666  0.1061841833128203  0.2950618220697691   T   T   T
  0.7502830854243270  0.1480012279295262  0.2953615905643182   T   T   T
  0.7507792419739381  0.2320265061866789  0.2963636576968706   T   T   T
  0.4992490888139236  0.0216818879834636  0.2948504179163453   T   T   T
  0.7479609366500317  0.3963749481125508  0.3006979359028084   T   T   T
  0.7470284701904241  0.4802532646956699  0.3010331941336282   T   T   T
  0.5019227162002068  0.2743929041334642  0.2961034620210595   T   T   T
  0.5005135842218001  0.6014997798832112  0.2958094418927519   T   T   T
  0.7497536686646455  0.7269875436203164  0.2959616355345742   T   T   T
  0.4981417451381212  0.8524214237217447  0.2952119015228103   T   T   T
  0.7491378672897894  0.8945030306612499  0.2951747157783803   T   T   T
  0.7492691411139084  0.9791079016796509  0.2949603167558640   T   T   T
  0.4982181210814310  0.7675978097875812  0.2956138744702838   T   T   T
  0.7498699192351272  0.6435345790526883  0.2974332074668094   T   T   T
 -0.0003937163333399  0.0214434275494059  0.2953488143697650   T   T   T
  0.5047419719259827  0.5210302435171706  0.2913498418021978   T   T   T
  0.9883282280372886  0.5198944210444282  0.3178299627845697   T   T   T
  0.5074635538858097  0.3545964829445799  0.2932024715077192   T   T   T
 -0.0122544723952171  0.3563315131331523  0.3155162367029255   T   T   T
  0.2478171090456139  0.6403325797933407  0.2983047157517011   T   T   T
  0.2935651381853119  0.4382833192782774  0.3466083463520092   T   T   T
 
  0.00000000E+00  0.00000000E+00  0.00000000E+00
  0.00000000E+00  0.00000000E+00  0.00000000E+00
  0.00000000E+00  0.00000000E+00  0.00000000E+00
  0.00000000E+00  0.00000000E+00  0.00000000E+00
  0.00000000E+00  0.00000000E+00  0.00000000E+00
  0.00000000E+00  0.00000000E+00  0.00000000E+00
  0.00000000E+00  0.00000000E+00  0.00000000E+00
  0.00000000E+00  0.00000000E+00  0.00000000E+00
  0.00000000E+00  0.00000000E+00  0.00000000E+00
  0.00000000E+00  0.00000000E+00  0.00000000E+00
  0.00000000E+00  0.00000000E+00  0.00000000E+00
  0.00000000E+00  0.00000000E+00  0.00000000E+00
  0.00000000E+00  0.00000000E+00  0.00000000E+00
  0.00000000E+00  0.00000000E+00  0.00000000E+00
  0.00000000E+00  0.00000000E+00  0.00000000E+00
  0.00000000E+00  0.00000000E+00  0.00000000E+00
  0.00000000E+00  0.00000000E+00  0.00000000E+00
  0.00000000E+00  0.00000000E+00  0.00000000E+00
  0.00000000E+00  0.00000000E+00  0.00000000E+00
  0.00000000E+00  0.00000000E+00  0.00000000E+00
  0.00000000E+00  0.00000000E+00  0.00000000E+00
  0.00000000E+00  0.00000000E+00  0.00000000E+00
  0.00000000E+00  0.00000000E+00  0.00000000E+00
  0.00000000E+00  0.00000000E+00  0.00000000E+00
  0.00000000E+00  0.00000000E+00  0.00000000E+00
  0.00000000E+00  0.00000000E+00  0.00000000E+00
  0.00000000E+00  0.00000000E+00  0.00000000E+00
  0.00000000E+00  0.00000000E+00  0.00000000E+00
  0.00000000E+00  0.00000000E+00  0.00000000E+00
  0.00000000E+00  0.00000000E+00  0.00000000E+00
  0.00000000E+00  0.00000000E+00  0.00000000E+00
