Title                                   
   1.00000000000000     
     9.8694509999999998    0.0000000000000000    0.0000000000000000
     0.0000000000000000    8.5490480000000009    0.0000000000000000
     0.0000000000000000    0.0000000000000000   20.0000000000000000
    28     3     1
Selective dynamics
Direct
  0.0564974812947787  0.0921205271064430  0.0800896880942318   T   T   T
  0.9311753923339439  0.1746719563228902  0.0814233273218377   T   T   T
  0.0577295369550167  0.9245967800104797  0.0789643607359023   T   T   T
  0.9304324170855768  0.3422521275412526  0.0863104864548481   T   T   T
  0.0574223652127179  0.5908278860867665  0.0844715162749860   T   T   T
  0.9332669680688305  0.6737476567899445  0.0835091532875313   T   T   T
  0.0573501309012368  0.4235469039687798  0.0867295117339413   T   T   T
  0.9330532876623101  0.8403964260190722  0.0804847702398399   T   T   T
  0.3058810228306552  0.0883684900995704  0.0866828986630735   T   T   T
  0.1827372121180229  0.1742770836364770  0.0852233591582812   T   T   T
  0.1835296736397866  0.3408732592360495  0.0915217687387778   T   T   T
  0.3017460010130703  0.5917573332769692  0.1098278776404861   T   T   T
  0.1821773847454339  0.6741409446498926  0.0893214466595226   T   T   T
  0.3069707302065459  0.4217124547043365  0.1074707783238442   T   T   T
  0.1821720858421358  0.8411770461151993  0.0837182991005506   T   T   T
  0.5556714698817103  0.0843804490854990  0.0919563668285149   T   T   T
  0.5549969990179163  0.9198714893366230  0.0993115947802731   T   T   T
  0.4315820263396967  0.3282541462575465  0.1130803657881076   T   T   T
  0.4242611698126175  0.8425570437325994  0.1074395699151864   T   T   T
  0.8059003562853804  0.0889095427542237  0.0808511871380310   T   T   T
  0.6798777566597373  0.1694836344904784  0.0874086683205968   T   T   T
  0.8072051097176612  0.9238984188087731  0.0824801134671136   T   T   T
  0.6808692608252349  0.3320988792428111  0.1028253150037265   T   T   T
  0.8085937037932498  0.5940444230797136  0.0955928455727855   T   T   T
  0.8043334558340172  0.4242240556528569  0.0957926189111197   T   T   T
  0.6853027767556474  0.8392152274556157  0.0960674692971859   T   T   T
  0.4092420786316505  0.6918395844111729  0.1302685410794073   T   T   T
  0.5584585801533427  0.3909499075992469  0.1288540311553298   T   T   T
  0.6963186584098234  0.6826454818901565  0.1091629489064222   T   T   T
  0.3053277259287505  0.9263231229226675  0.0867392249016782   T   T   T
  0.4291018781737735  0.1658925914273899  0.0942481529804100   T   T   T
  0.5604543038697344  0.5911911262885037  0.1678467435264731   T   T   T
 
  0.00000000E+00  0.00000000E+00  0.00000000E+00
  0.00000000E+00  0.00000000E+00  0.00000000E+00
  0.00000000E+00  0.00000000E+00  0.00000000E+00
  0.00000000E+00  0.00000000E+00  0.00000000E+00
  0.00000000E+00  0.00000000E+00  0.00000000E+00
  0.00000000E+00  0.00000000E+00  0.00000000E+00
  0.00000000E+00  0.00000000E+00  0.00000000E+00
  0.00000000E+00  0.00000000E+00  0.00000000E+00
  0.00000000E+00  0.00000000E+00  0.00000000E+00
  0.00000000E+00  0.00000000E+00  0.00000000E+00
  0.00000000E+00  0.00000000E+00  0.00000000E+00
  0.00000000E+00  0.00000000E+00  0.00000000E+00
  0.00000000E+00  0.00000000E+00  0.00000000E+00
  0.00000000E+00  0.00000000E+00  0.00000000E+00
  0.00000000E+00  0.00000000E+00  0.00000000E+00
  0.00000000E+00  0.00000000E+00  0.00000000E+00
  0.00000000E+00  0.00000000E+00  0.00000000E+00
  0.00000000E+00  0.00000000E+00  0.00000000E+00
  0.00000000E+00  0.00000000E+00  0.00000000E+00
  0.00000000E+00  0.00000000E+00  0.00000000E+00
  0.00000000E+00  0.00000000E+00  0.00000000E+00
  0.00000000E+00  0.00000000E+00  0.00000000E+00
  0.00000000E+00  0.00000000E+00  0.00000000E+00
  0.00000000E+00  0.00000000E+00  0.00000000E+00
  0.00000000E+00  0.00000000E+00  0.00000000E+00
  0.00000000E+00  0.00000000E+00  0.00000000E+00
  0.00000000E+00  0.00000000E+00  0.00000000E+00
  0.00000000E+00  0.00000000E+00  0.00000000E+00
  0.00000000E+00  0.00000000E+00  0.00000000E+00
  0.00000000E+00  0.00000000E+00  0.00000000E+00
  0.00000000E+00  0.00000000E+00  0.00000000E+00
  0.00000000E+00  0.00000000E+00  0.00000000E+00
