Title                                   
   1.00000000000000     
     8.5490480000000009    0.0000000000000000    0.0000000000000000
     0.0000000000000000    8.5490480000000009    0.0000000000000000
     0.0000000000000000    0.0000000000000000   20.0000000000000000
    22     2     1
Selective dynamics
Direct
  0.9109698592529724  0.2048668263948071  0.0958015641421093   T   T   T
  0.9016608411029975  0.5018120495403823  0.0954297175122597   T   T   T
  0.9109503286554921  0.7987022254762459  0.0958022842367785   T   T   T
  0.2004141000087955  0.0844210102036834  0.0961414502103382   T   T   T
  0.0762997848311316  0.2071131116071269  0.0959246381196270   T   T   T
  0.2004001951340389  0.9191526924316472  0.0961291337137054   T   T   T
  0.1546049660538706  0.6472618692884898  0.0955308997360487   T   T   T
  0.0712122858057502  0.5018084992932470  0.0954303688863009   T   T   T
  0.1545870739325566  0.3563309493014189  0.0955400478812805   T   T   T
  0.0763000179461615  0.7964580101656543  0.0959159304368465   T   T   T
  0.4943434596687567  0.0871919188042688  0.0955348559857742   T   T   T
  0.3487291618869481  0.1675254036372416  0.0958019975605048   T   T   T
  0.4943359446657538  0.9164001739225803  0.0955275439394955   T   T   T
  0.3487255608888111  0.8360653994582816  0.0957920324046904   T   T   T
  0.7912117914539288  0.0846846895398689  0.0956575732285323   T   T   T
  0.6436507704353981  0.1663867956937178  0.0953471493667181   T   T   T
  0.7911980588698432  0.9188909467608828  0.0956565498447701   T   T   T
  0.8249330723928041  0.6511704125172425  0.0954911326684647   T   T   T
  0.8249485769345948  0.3524068847201491  0.0954910666503723   T   T   T
  0.6436369942622954  0.8371923000326885  0.0953356939189878   T   T   T
  0.3234164453281343  0.3389049539581763  0.0948308681783060   T   T   T
  0.3234432572765051  0.6646874592461914  0.0948279988081286   T   T   T
  0.6652976966743908  0.3266866825904821  0.0950900447326522   T   T   T
  0.6652780143768674  0.6768732407329392  0.0950779992951279   T   T   T
  0.4848637421611943  0.5017954946825992  0.0905964585421583   T   T   T
 
  0.00000000E+00  0.00000000E+00  0.00000000E+00
  0.00000000E+00  0.00000000E+00  0.00000000E+00
  0.00000000E+00  0.00000000E+00  0.00000000E+00
  0.00000000E+00  0.00000000E+00  0.00000000E+00
  0.00000000E+00  0.00000000E+00  0.00000000E+00
  0.00000000E+00  0.00000000E+00  0.00000000E+00
  0.00000000E+00  0.00000000E+00  0.00000000E+00
  0.00000000E+00  0.00000000E+00  0.00000000E+00
  0.00000000E+00  0.00000000E+00  0.00000000E+00
  0.00000000E+00  0.00000000E+00  0.00000000E+00
  0.00000000E+00  0.00000000E+00  0.00000000E+00
  0.00000000E+00  0.00000000E+00  0.00000000E+00
  0.00000000E+00  0.00000000E+00  0.00000000E+00
  0.00000000E+00  0.00000000E+00  0.00000000E+00
  0.00000000E+00  0.00000000E+00  0.00000000E+00
  0.00000000E+00  0.00000000E+00  0.00000000E+00
  0.00000000E+00  0.00000000E+00  0.00000000E+00
  0.00000000E+00  0.00000000E+00  0.00000000E+00
  0.00000000E+00  0.00000000E+00  0.00000000E+00
  0.00000000E+00  0.00000000E+00  0.00000000E+00
  0.00000000E+00  0.00000000E+00  0.00000000E+00
  0.00000000E+00  0.00000000E+00  0.00000000E+00
  0.00000000E+00  0.00000000E+00  0.00000000E+00
  0.00000000E+00  0.00000000E+00  0.00000000E+00
  0.00000000E+00  0.00000000E+00  0.00000000E+00
