Title                                   
   1.00000000000000     
     9.8694509999999998    0.0000000000000000    0.0000000000000000
     0.0000000000000000    8.5490480000000009    0.0000000000000000
     0.0000000000000000    0.0000000000000000   20.0000000000000000
    29     2     1
Selective dynamics
Direct
  0.0565259515706175  0.0913008726738156  0.0823424930902597   T   T   T
  0.9312834367359947  0.1735534324155106  0.0845408404197592   T   T   T
  0.0557913001787024  0.9239426646092144  0.0821541267025723   T   T   T
  0.9306715554394256  0.3396431670465730  0.0884633965148555   T   T   T
  0.0566873135446376  0.5891480998830362  0.0852721499879583   T   T   T
  0.9323952054006410  0.6725350093377587  0.0876820556744617   T   T   T
  0.0569467597160300  0.4228544623820581  0.0870339805270358   T   T   T
  0.9314091582103762  0.8394684684406833  0.0851655336380021   T   T   T
  0.3057682536644282  0.0902424322613288  0.0856215478689819   T   T   T
  0.1817483387197618  0.1747847467143885  0.0844640580337510   T   T   T
  0.3045499633639155  0.9244833570017926  0.0875071500064604   T   T   T
  0.1835177394977892  0.3415899949997666  0.0881285574160416   T   T   T
  0.3041407813395010  0.5939227153812336  0.0977959786752654   T   T   T
  0.1803231229513186  0.6738439170618369  0.0868264171101757   T   T   T
  0.3100062062078265  0.4255741746856259  0.0961506176458787   T   T   T
  0.1798812330396736  0.8407603443652398  0.0848351761703499   T   T   T
  0.5557455047684124  0.0854816546946926  0.0935562740209942   T   T   T
  0.4312954174266986  0.1707711576419159  0.0909689559949710   T   T   T
  0.5551485060872933  0.9197508406832058  0.0994273582539594   T   T   T
  0.4337358626039939  0.3348842171871818  0.0991999680701438   T   T   T
  0.4261284029865775  0.8408515604796585  0.0994955788038411   T   T   T
  0.8069052482020260  0.0889512997003177  0.0860851417201401   T   T   T
  0.6814514990184050  0.1689597639734012  0.0915948664429827   T   T   T
  0.8065824722748702  0.9230748186786517  0.0882210194186087   T   T   T
  0.6808588345557531  0.3332648591337019  0.1002497271728213   T   T   T
  0.8095543823501717  0.5900631111195478  0.1003098902906396   T   T   T
  0.6941908165156490  0.6799284416325553  0.1173675251478380   T   T   T
  0.8052117514069297  0.4220351846084298  0.0976647276082901   T   T   T
  0.6839948139276658  0.8404489601161752  0.1010998274921191   T   T   T
  0.4167242616370068  0.6833870302296218  0.1140316581930355   T   T   T
  0.5574809217018826  0.4034456691541748  0.1148954291008023   T   T   T
  0.5529839849560317  0.5872995717069152  0.1775229727870382   T   T   T
 
  0.00000000E+00  0.00000000E+00  0.00000000E+00
  0.00000000E+00  0.00000000E+00  0.00000000E+00
  0.00000000E+00  0.00000000E+00  0.00000000E+00
  0.00000000E+00  0.00000000E+00  0.00000000E+00
  0.00000000E+00  0.00000000E+00  0.00000000E+00
  0.00000000E+00  0.00000000E+00  0.00000000E+00
  0.00000000E+00  0.00000000E+00  0.00000000E+00
  0.00000000E+00  0.00000000E+00  0.00000000E+00
  0.00000000E+00  0.00000000E+00  0.00000000E+00
  0.00000000E+00  0.00000000E+00  0.00000000E+00
  0.00000000E+00  0.00000000E+00  0.00000000E+00
  0.00000000E+00  0.00000000E+00  0.00000000E+00
  0.00000000E+00  0.00000000E+00  0.00000000E+00
  0.00000000E+00  0.00000000E+00  0.00000000E+00
  0.00000000E+00  0.00000000E+00  0.00000000E+00
  0.00000000E+00  0.00000000E+00  0.00000000E+00
  0.00000000E+00  0.00000000E+00  0.00000000E+00
  0.00000000E+00  0.00000000E+00  0.00000000E+00
  0.00000000E+00  0.00000000E+00  0.00000000E+00
  0.00000000E+00  0.00000000E+00  0.00000000E+00
  0.00000000E+00  0.00000000E+00  0.00000000E+00
  0.00000000E+00  0.00000000E+00  0.00000000E+00
  0.00000000E+00  0.00000000E+00  0.00000000E+00
  0.00000000E+00  0.00000000E+00  0.00000000E+00
  0.00000000E+00  0.00000000E+00  0.00000000E+00
  0.00000000E+00  0.00000000E+00  0.00000000E+00
  0.00000000E+00  0.00000000E+00  0.00000000E+00
  0.00000000E+00  0.00000000E+00  0.00000000E+00
  0.00000000E+00  0.00000000E+00  0.00000000E+00
  0.00000000E+00  0.00000000E+00  0.00000000E+00
  0.00000000E+00  0.00000000E+00  0.00000000E+00
  0.00000000E+00  0.00000000E+00  0.00000000E+00
