Title                                   
   1.00000000000000     
     9.8694509999999998    0.0000000000000000    0.0000000000000000
     0.0000000000000000    8.5490480000000009    0.0000000000000000
     0.0000000000000000    0.0000000000000000   20.0000000000000000
    30     1     1
Selective dynamics
Direct
  0.0562416224680333  0.0897957405893032  0.0825800850568875   T   T   T
  0.9310406970871438  0.1731408431924215  0.0848429484278646   T   T   T
  0.0562371546800956  0.9229501427497868  0.0827103033006357   T   T   T
  0.9304307564229014  0.3404302102566764  0.0884131516026305   T   T   T
  0.0562414229530087  0.5892368770106527  0.0861566404007569   T   T   T
  0.9311830084756878  0.6725148210097185  0.0882111239522918   T   T   T
  0.0562246723101246  0.4231461500640457  0.0868964125363938   T   T   T
  0.9308135352048733  0.8394202902469106  0.0853580644783332   T   T   T
  0.3054147855140783  0.0893777252928182  0.0864777158633028   T   T   T
  0.1814334989596556  0.1731485101098405  0.0848285011466997   T   T   T
  0.3067238967847056  0.9235590715563541  0.0872688209028897   T   T   T
  0.1820209008429802  0.3404344381332738  0.0883932200727344   T   T   T
  0.3051436555651889  0.5912655489041154  0.0993119151429409   T   T   T
  0.1813119657071952  0.6725156745462878  0.0881803614656648   T   T   T
  0.3063615357307569  0.4226013021407640  0.0975245050222980   T   T   T
  0.1816577171084786  0.8394211031305033  0.0853289404350834   T   T   T
  0.5562404215622797  0.0868707603627239  0.0939992384782107   T   T   T
  0.4309449685187025  0.1697856080392271  0.0927124245213707   T   T   T
  0.4312503171053798  0.3351755690859012  0.1016131857936375   T   T   T
  0.4247414635563859  0.6805783824379310  0.1138690053928221   T   T   T
  0.5562261277754069  0.4093347740211420  0.1158873416823289   T   T   T
  0.4304939725237561  0.8411626644486249  0.0982450978604318   T   T   T
  0.8070615137804323  0.0893635901188929  0.0865047109234702   T   T   T
  0.6815466881234122  0.1697830726915144  0.0927365886168216   T   T   T
  0.8057406135575941  0.9235486946371878  0.0872929637274442   T   T   T
  0.6812203161777179  0.3351751294437988  0.1016372614026571   T   T   T
  0.8073722215133561  0.5912657651331746  0.0993579736434622   T   T   T
  0.6877829176260188  0.6805844185168149  0.1139047535670878   T   T   T
  0.8061049815398172  0.4226017713239950  0.0975581415169693   T   T   T
  0.6819711654487073  0.8411507287592513  0.0982668116710879   T   T   T
  0.5562320368384698  0.9227293186491294  0.0973987437207199   T   T   T
  0.5562284485376617  0.5881773033972274  0.1722080476741049   T   T   T
 
  0.00000000E+00  0.00000000E+00  0.00000000E+00
  0.00000000E+00  0.00000000E+00  0.00000000E+00
  0.00000000E+00  0.00000000E+00  0.00000000E+00
  0.00000000E+00  0.00000000E+00  0.00000000E+00
  0.00000000E+00  0.00000000E+00  0.00000000E+00
  0.00000000E+00  0.00000000E+00  0.00000000E+00
  0.00000000E+00  0.00000000E+00  0.00000000E+00
  0.00000000E+00  0.00000000E+00  0.00000000E+00
  0.00000000E+00  0.00000000E+00  0.00000000E+00
  0.00000000E+00  0.00000000E+00  0.00000000E+00
  0.00000000E+00  0.00000000E+00  0.00000000E+00
  0.00000000E+00  0.00000000E+00  0.00000000E+00
  0.00000000E+00  0.00000000E+00  0.00000000E+00
  0.00000000E+00  0.00000000E+00  0.00000000E+00
  0.00000000E+00  0.00000000E+00  0.00000000E+00
  0.00000000E+00  0.00000000E+00  0.00000000E+00
  0.00000000E+00  0.00000000E+00  0.00000000E+00
  0.00000000E+00  0.00000000E+00  0.00000000E+00
  0.00000000E+00  0.00000000E+00  0.00000000E+00
  0.00000000E+00  0.00000000E+00  0.00000000E+00
  0.00000000E+00  0.00000000E+00  0.00000000E+00
  0.00000000E+00  0.00000000E+00  0.00000000E+00
  0.00000000E+00  0.00000000E+00  0.00000000E+00
  0.00000000E+00  0.00000000E+00  0.00000000E+00
  0.00000000E+00  0.00000000E+00  0.00000000E+00
  0.00000000E+00  0.00000000E+00  0.00000000E+00
  0.00000000E+00  0.00000000E+00  0.00000000E+00
  0.00000000E+00  0.00000000E+00  0.00000000E+00
  0.00000000E+00  0.00000000E+00  0.00000000E+00
  0.00000000E+00  0.00000000E+00  0.00000000E+00
  0.00000000E+00  0.00000000E+00  0.00000000E+00
  0.00000000E+00  0.00000000E+00  0.00000000E+00
