Title                                   
   1.00000000000000     
     4.9440799999999996    0.0000000000000000    0.0000000000000000
     0.0000000000000000    8.5647549999999999    0.0000000000000000
     0.0000000000000000    0.0000000000000000   20.0000000000000000
    10     4     1
Selective dynamics
Direct
 -0.0030769712122883  0.2943181124231421  0.0990873139153674   T   T   T
  0.2490566747480399  0.0384223174470165  0.0997365556044142   T   T   T
 -0.0028464154054728  0.9572293826832713  0.0986970204697345   T   T   T
  0.7476318042836146  0.2070884282473302  0.0980037871949519   T   T   T
  0.4994982849441440  0.2932145071548770  0.0996495746508202   T   T   T
  0.7500300519191644  0.0411268063532867  0.0981213515114010   T   T   T
  0.7545687982074131  0.7152376731905493  0.0997716056655089   T   T   T
  0.7524171811157073  0.5371533788587893  0.0996328944057516   T   T   T
  0.5019494570769441  0.9554643570922193  0.1001699493964596   T   T   T
  0.5074511686091133  0.4570746328470044  0.1021637619127354   T   T   T
 -0.0060616498752693  0.4532340473502261  0.1001854769636282   T   T   T
 -0.0101860848311302  0.7954650054074541  0.0985987537334718   T   T   T
  0.5140367284567544  0.7930349014773207  0.1030507116144509   T   T   T
  0.2474550999837693  0.2096288650981452  0.0997972193983314   T   T   T
  0.2480758719794953  0.6239885843693703  0.1113140235629763   T   T   T
 
  0.00000000E+00  0.00000000E+00  0.00000000E+00
  0.00000000E+00  0.00000000E+00  0.00000000E+00
  0.00000000E+00  0.00000000E+00  0.00000000E+00
  0.00000000E+00  0.00000000E+00  0.00000000E+00
  0.00000000E+00  0.00000000E+00  0.00000000E+00
  0.00000000E+00  0.00000000E+00  0.00000000E+00
  0.00000000E+00  0.00000000E+00  0.00000000E+00
  0.00000000E+00  0.00000000E+00  0.00000000E+00
  0.00000000E+00  0.00000000E+00  0.00000000E+00
  0.00000000E+00  0.00000000E+00  0.00000000E+00
  0.00000000E+00  0.00000000E+00  0.00000000E+00
  0.00000000E+00  0.00000000E+00  0.00000000E+00
  0.00000000E+00  0.00000000E+00  0.00000000E+00
  0.00000000E+00  0.00000000E+00  0.00000000E+00
  0.00000000E+00  0.00000000E+00  0.00000000E+00
