Title                                   
   1.00000000000000     
     9.8694509999999998    0.0000000000000000    0.0000000000000000
     0.0000000000000000    8.5490480000000009    0.0000000000000000
     0.0000000000000000    0.0000000000000000   20.0000000000000000
    29     2     1
Selective dynamics
Direct
  0.0563804371148886  0.0897799681463210  0.0864561967429200   T   T   T
  0.9316114560563262  0.1727725538381901  0.0873107181792115   T   T   T
  0.0573605766260373  0.9233791924344605  0.0868321507266240   T   T   T
  0.9313766186905275  0.3402062020847473  0.0890901759969363   T   T   T
  0.0570033545784834  0.5906224561417601  0.0880031462775521   T   T   T
  0.9321936749857868  0.6731318054490798  0.0901429144543549   T   T   T
  0.0570435478664428  0.4228999996032416  0.0880212390477171   T   T   T
  0.9320376678300620  0.8396073315698241  0.0887986690712706   T   T   T
  0.3060607522460008  0.0884608393618702  0.0902560298987684   T   T   T
  0.1825012572078221  0.1722385727957343  0.0879274584779631   T   T   T
  0.1819391668818256  0.3394266669598114  0.0894497514165137   T   T   T
  0.3051405653483116  0.5882129818024495  0.0990175186765564   T   T   T
  0.1820520164077302  0.6740701063758869  0.0902349943787728   T   T   T
  0.3059979700055616  0.4214776981821645  0.0969464950158532   T   T   T
  0.1820412058121068  0.8407924558508498  0.0889771411600060   T   T   T
  0.5555136778587834  0.0880898577165653  0.0944814710384628   T   T   T
  0.5544648470462478  0.9244693407943458  0.0987351759569708   T   T   T
  0.4304837530553273  0.3345492091675657  0.1018754605154769   T   T   T
  0.4284276963542058  0.8408177312491841  0.1015648899190471   T   T   T
  0.8062316180701627  0.0890411130630465  0.0888561477722671   T   T   T
  0.6804102012546863  0.1716095549972322  0.0927415508006254   T   T   T
  0.8068004261806196  0.9235613418585338  0.0908541260010961   T   T   T
  0.6822874121493437  0.3369809113851952  0.0996264005299236   T   T   T
  0.8075953780178288  0.5902444340207982  0.0983078737705101   T   T   T
  0.8067033753794006  0.4219431980638546  0.0958720677809666   T   T   T
  0.6816387417342697  0.8415333817533628  0.0994777281491304   T   T   T
  0.4220177607710077  0.6797888976657328  0.1119793442453672   T   T   T
  0.5551884614205247  0.4084327594416918  0.1123233828660786   T   T   T
  0.6890438670886990  0.6783843741408878  0.1098904415426828   T   T   T
  0.3060711711839546  0.9257476042577650  0.0914682069057709   T   T   T
  0.4292883698765728  0.1689255214454740  0.0939415685492163   T   T   T
  0.5567319749004587  0.5890479383823775  0.1562145641354031   T   T   T
 
  0.00000000E+00  0.00000000E+00  0.00000000E+00
  0.00000000E+00  0.00000000E+00  0.00000000E+00
  0.00000000E+00  0.00000000E+00  0.00000000E+00
  0.00000000E+00  0.00000000E+00  0.00000000E+00
  0.00000000E+00  0.00000000E+00  0.00000000E+00
  0.00000000E+00  0.00000000E+00  0.00000000E+00
  0.00000000E+00  0.00000000E+00  0.00000000E+00
  0.00000000E+00  0.00000000E+00  0.00000000E+00
  0.00000000E+00  0.00000000E+00  0.00000000E+00
  0.00000000E+00  0.00000000E+00  0.00000000E+00
  0.00000000E+00  0.00000000E+00  0.00000000E+00
  0.00000000E+00  0.00000000E+00  0.00000000E+00
  0.00000000E+00  0.00000000E+00  0.00000000E+00
  0.00000000E+00  0.00000000E+00  0.00000000E+00
  0.00000000E+00  0.00000000E+00  0.00000000E+00
  0.00000000E+00  0.00000000E+00  0.00000000E+00
  0.00000000E+00  0.00000000E+00  0.00000000E+00
  0.00000000E+00  0.00000000E+00  0.00000000E+00
  0.00000000E+00  0.00000000E+00  0.00000000E+00
  0.00000000E+00  0.00000000E+00  0.00000000E+00
  0.00000000E+00  0.00000000E+00  0.00000000E+00
  0.00000000E+00  0.00000000E+00  0.00000000E+00
  0.00000000E+00  0.00000000E+00  0.00000000E+00
  0.00000000E+00  0.00000000E+00  0.00000000E+00
  0.00000000E+00  0.00000000E+00  0.00000000E+00
  0.00000000E+00  0.00000000E+00  0.00000000E+00
  0.00000000E+00  0.00000000E+00  0.00000000E+00
  0.00000000E+00  0.00000000E+00  0.00000000E+00
  0.00000000E+00  0.00000000E+00  0.00000000E+00
  0.00000000E+00  0.00000000E+00  0.00000000E+00
  0.00000000E+00  0.00000000E+00  0.00000000E+00
  0.00000000E+00  0.00000000E+00  0.00000000E+00
