Title                                   
   1.00000000000000     
     4.9440799999999996    0.0000000000000000    0.0000000000000000
     0.0000000000000000   17.1295089999999988    0.0000000000000000
     0.0000000000000000    0.0000000000000000   20.0000000000000000
    29     2     1
Selective dynamics
Direct
  0.0000673502023606  0.1049227985147809  0.2833502688106926   T   T   T
  0.2499634817140844  0.1466315520627966  0.2878431098180894   T   T   T
  0.2499670763947492  0.2290127971941029  0.2997190212376161   T   T   T
  0.0038812090377784  0.3496074844315043  0.3245372498971786   T   T   T
 -0.0012944694148740  0.2702673147867331  0.3055954962495211   T   T   T
 -0.0036686899155535  0.6052762168513226  0.3079716488405440   T   T   T
  0.2498259615255786  0.7285479451059400  0.2887482631511473   T   T   T
  0.0001178194277439  0.8540490254902782  0.2779568875692072   T   T   T
  0.2498908338245249  0.8960355506036688  0.2768459596868632   T   T   T
  0.2499203749269360  0.9796829860151574  0.2769651577997511   T   T   T
  0.0002009541087347  0.7705957409562971  0.2834646186975808   T   T   T
  0.4998700712371703  0.1049176039081924  0.2833492269647093   T   T   T
  0.7499565873904984  0.1468170965244341  0.2867739637083380   T   T   T
  0.7499826995074969  0.2290247323895809  0.2966954209109223   T   T   T
  0.5000069384746569  0.0216072487480198  0.2781541043497855   T   T   T
  0.4960241544259602  0.3496022047814838  0.3245444691131043   T   T   T
  0.7498728492114092  0.4788500765708875  0.3252584861986273   T   T   T
  0.5012321520723564  0.2702693644716098  0.3056011449728028   T   T   T
  0.5033578345806961  0.6052612134646842  0.3079851686309773   T   T   T
  0.7498363302509227  0.7293653358770736  0.2867861161877700   T   T   T
  0.4996203813236554  0.8540448734121960  0.2779587472102929   T   T   T
  0.7498814178641589  0.8959158211941091  0.2764813629538226   T   T   T
  0.7499243873356399  0.9795783452125170  0.2766055409687546   T   T   T
  0.4994424358873084  0.7705907460945237  0.2834643955918699   T   T   T
  0.7498208912388478  0.6467821348798601  0.2977230209169446   T   T   T
  0.2498427049178874  0.6460706837370120  0.3023540937156626   T   T   T
 -0.0001194431882818  0.0216096805986663  0.2781535557071335   T   T   T
  0.5108837329040623  0.5242983528557879  0.3266186155884829   T   T   T
  0.9888193209198350  0.5243067234353196  0.3265707763426106   T   T   T
  0.2499632422344656  0.3834308588332275  0.3424218225786264   T   T   T
  0.7499292835263421  0.3936138184346234  0.3295469935457438   T   T   T
  0.2498031260528556  0.4879646725636018  0.3965202920847783   T   T   T
 
  0.00000000E+00  0.00000000E+00  0.00000000E+00
  0.00000000E+00  0.00000000E+00  0.00000000E+00
  0.00000000E+00  0.00000000E+00  0.00000000E+00
  0.00000000E+00  0.00000000E+00  0.00000000E+00
  0.00000000E+00  0.00000000E+00  0.00000000E+00
  0.00000000E+00  0.00000000E+00  0.00000000E+00
  0.00000000E+00  0.00000000E+00  0.00000000E+00
  0.00000000E+00  0.00000000E+00  0.00000000E+00
  0.00000000E+00  0.00000000E+00  0.00000000E+00
  0.00000000E+00  0.00000000E+00  0.00000000E+00
  0.00000000E+00  0.00000000E+00  0.00000000E+00
  0.00000000E+00  0.00000000E+00  0.00000000E+00
  0.00000000E+00  0.00000000E+00  0.00000000E+00
  0.00000000E+00  0.00000000E+00  0.00000000E+00
  0.00000000E+00  0.00000000E+00  0.00000000E+00
  0.00000000E+00  0.00000000E+00  0.00000000E+00
  0.00000000E+00  0.00000000E+00  0.00000000E+00
  0.00000000E+00  0.00000000E+00  0.00000000E+00
  0.00000000E+00  0.00000000E+00  0.00000000E+00
  0.00000000E+00  0.00000000E+00  0.00000000E+00
  0.00000000E+00  0.00000000E+00  0.00000000E+00
  0.00000000E+00  0.00000000E+00  0.00000000E+00
  0.00000000E+00  0.00000000E+00  0.00000000E+00
  0.00000000E+00  0.00000000E+00  0.00000000E+00
  0.00000000E+00  0.00000000E+00  0.00000000E+00
  0.00000000E+00  0.00000000E+00  0.00000000E+00
  0.00000000E+00  0.00000000E+00  0.00000000E+00
  0.00000000E+00  0.00000000E+00  0.00000000E+00
  0.00000000E+00  0.00000000E+00  0.00000000E+00
  0.00000000E+00  0.00000000E+00  0.00000000E+00
  0.00000000E+00  0.00000000E+00  0.00000000E+00
  0.00000000E+00  0.00000000E+00  0.00000000E+00
