Title                                   
   1.00000000000000     
     4.9440799999999996    0.0000000000000000    0.0000000000000000
     0.0000000000000000    8.5647549999999999    0.0000000000000000
     0.0000000000000000    0.0000000000000000   20.0000000000000000
    13     2     1
Selective dynamics
Direct
  0.2485649645015942  0.2092593763403608  0.0914382006365093   T   T   T
 -0.0059970161359153  0.2893483998436823  0.0946215787484227   T   T   T
  0.2499255093536170  0.0433922260191354  0.0851348586986521   T   T   T
  0.0038518936404459  0.7967968787437594  0.0972862188413216   T   T   T
  0.0006561687419910  0.9591301936600469  0.0844296293684717   T   T   T
  0.7480283716744569  0.2067364079098028  0.0858846474764518   T   T   T
  0.5017458182974346  0.2878660638946760  0.0965412662559588   T   T   T
  0.7505525515139926  0.0408077262744395  0.0805838805153480   T   T   T
  0.7545162973703439  0.7068413278070762  0.1020884971844198   T   T   T
  0.5017826983112610  0.7961370781554913  0.0980927506460255   T   T   T
  0.7508916549730837  0.5378434688285376  0.1074451846966138   T   T   T
  0.5011322710487431  0.9593380769316100  0.0852143460843850   T   T   T
  0.5155226503950784  0.4471231972792070  0.1178605072785326   T   T   T
 -0.0162092671800437  0.4469798724310565  0.1113709782549809   T   T   T
  0.2527033616968289  0.7295380047015457  0.1148077844771234   T   T   T
  0.2423320717970870  0.5428617011795719  0.1697116708367905   T   T   T
 
  0.00000000E+00  0.00000000E+00  0.00000000E+00
  0.00000000E+00  0.00000000E+00  0.00000000E+00
  0.00000000E+00  0.00000000E+00  0.00000000E+00
  0.00000000E+00  0.00000000E+00  0.00000000E+00
  0.00000000E+00  0.00000000E+00  0.00000000E+00
  0.00000000E+00  0.00000000E+00  0.00000000E+00
  0.00000000E+00  0.00000000E+00  0.00000000E+00
  0.00000000E+00  0.00000000E+00  0.00000000E+00
  0.00000000E+00  0.00000000E+00  0.00000000E+00
  0.00000000E+00  0.00000000E+00  0.00000000E+00
  0.00000000E+00  0.00000000E+00  0.00000000E+00
  0.00000000E+00  0.00000000E+00  0.00000000E+00
  0.00000000E+00  0.00000000E+00  0.00000000E+00
  0.00000000E+00  0.00000000E+00  0.00000000E+00
  0.00000000E+00  0.00000000E+00  0.00000000E+00
  0.00000000E+00  0.00000000E+00  0.00000000E+00
