Title                                   
   1.00000000000000     
     8.5490480000000009    0.0000000000000000    0.0000000000000000
     0.0000000000000000    8.5490480000000009    0.0000000000000000
     0.0000000000000000    0.0000000000000000   20.0000000000000000
    22     2     1
Selective dynamics
Direct
  0.9096556733870608  0.2050941083350945  0.0954499607371984   T   T   T
  0.9029732857495005  0.5018046902929215  0.0952865048522869   T   T   T
  0.9096548623464575  0.7984807380718508  0.0954570346516763   T   T   T
  0.1978812815949109  0.0834631989813612  0.0954621781834137   T   T   T
  0.0749243709397219  0.2068716341032879  0.0954479710065901   T   T   T
  0.1978878763471807  0.9200954424257018  0.0954745665665806   T   T   T
  0.1550328074562448  0.6480349054550998  0.0953615700316519   T   T   T
  0.0726558594036062  0.5018010657149787  0.0953217910971137   T   T   T
  0.1550271947535430  0.3555527170727612  0.0953557969773152   T   T   T
  0.0749219394839876  0.7966925001471992  0.0954614782084663   T   T   T
  0.4957977775071597  0.0867288677717978  0.0953494942057938   T   T   T
  0.3490427013826802  0.1682668419338888  0.0953683493530054   T   T   T
  0.4957951884916791  0.9168617123933918  0.0953523695246498   T   T   T
  0.3490521386925781  0.8353065406351147  0.0953815798488985   T   T   T
  0.7897838442295194  0.0852430762732147  0.0954616357425504   T   T   T
  0.6430642989756358  0.1663808732167294  0.0953141932021075   T   T   T
  0.7897869331848982  0.9183443159030713  0.0954655012966419   T   T   T
  0.8246234206400157  0.6498854263680455  0.0952963478784020   T   T   T
  0.8246386414704616  0.3537115569293147  0.0952925292298651   T   T   T
  0.6430599483178012  0.8372165108789258  0.0953157926537188   T   T   T
  0.3236167714646661  0.3331997245749907  0.0952943561901414   T   T   T
  0.3236258344867645  0.6703806867378417  0.0953106788332905   T   T   T
  0.6647482509096629  0.3294887536328042  0.0951537728281509   T   T   T
  0.6647338795593842  0.6740946703935699  0.0951636611863242   T   T   T
  0.4934272192248718  0.5017894417570556  0.0951058857141446   T   T   T
 
  0.00000000E+00  0.00000000E+00  0.00000000E+00
  0.00000000E+00  0.00000000E+00  0.00000000E+00
  0.00000000E+00  0.00000000E+00  0.00000000E+00
  0.00000000E+00  0.00000000E+00  0.00000000E+00
  0.00000000E+00  0.00000000E+00  0.00000000E+00
  0.00000000E+00  0.00000000E+00  0.00000000E+00
  0.00000000E+00  0.00000000E+00  0.00000000E+00
  0.00000000E+00  0.00000000E+00  0.00000000E+00
  0.00000000E+00  0.00000000E+00  0.00000000E+00
  0.00000000E+00  0.00000000E+00  0.00000000E+00
  0.00000000E+00  0.00000000E+00  0.00000000E+00
  0.00000000E+00  0.00000000E+00  0.00000000E+00
  0.00000000E+00  0.00000000E+00  0.00000000E+00
  0.00000000E+00  0.00000000E+00  0.00000000E+00
  0.00000000E+00  0.00000000E+00  0.00000000E+00
  0.00000000E+00  0.00000000E+00  0.00000000E+00
  0.00000000E+00  0.00000000E+00  0.00000000E+00
  0.00000000E+00  0.00000000E+00  0.00000000E+00
  0.00000000E+00  0.00000000E+00  0.00000000E+00
  0.00000000E+00  0.00000000E+00  0.00000000E+00
  0.00000000E+00  0.00000000E+00  0.00000000E+00
  0.00000000E+00  0.00000000E+00  0.00000000E+00
  0.00000000E+00  0.00000000E+00  0.00000000E+00
  0.00000000E+00  0.00000000E+00  0.00000000E+00
  0.00000000E+00  0.00000000E+00  0.00000000E+00
