Title                                   
   1.00000000000000     
     9.8694509999999998    0.0000000000000000    0.0000000000000000
     0.0000000000000000    8.5490480000000009    0.0000000000000000
     0.0000000000000000    0.0000000000000000   20.0000000000000000
    28     3     1
Selective dynamics
Direct
  0.0560248021627131  0.0919143230282942  0.0839165099370602   T   T   T
  0.9312063289496907  0.1734389492629096  0.0855604099014921   T   T   T
  0.0569458509275401  0.9246835357461153  0.0833881272382730   T   T   T
  0.9302885129185312  0.3405600011258383  0.0892998402868357   T   T   T
  0.0570788143984089  0.5901026211143582  0.0847431222933679   T   T   T
  0.9325524819567365  0.6728377152699657  0.0878527402171405   T   T   T
  0.0572924593710906  0.4230505539733171  0.0871840116684390   T   T   T
  0.9321165011553421  0.8395185272260024  0.0856351888050008   T   T   T
  0.3052958441738609  0.0887087584861825  0.0884245100785234   T   T   T
  0.1818382683494180  0.1739489601098831  0.0863655941850446   T   T   T
  0.1840151027812318  0.3413005467668048  0.0887077733505150   T   T   T
  0.3045703592420523  0.5938102718415190  0.0968200941176147   T   T   T
  0.1808172809772562  0.6749732131434001  0.0859416136517895   T   T   T
  0.3099259713339721  0.4259478487488442  0.0956465634417357   T   T   T
  0.1805461165715580  0.8416079065593719  0.0856381842159447   T   T   T
  0.5557745314288945  0.0844284433848712  0.0944869669994007   T   T   T
  0.4307621162478661  0.1684817803704366  0.0924255023683912   T   T   T
  0.5538601198900928  0.9191126282231106  0.1005528729710097   T   T   T
  0.4340383740733731  0.3343619201432242  0.0987179019960362   T   T   T
  0.4251068841910214  0.8402570992824862  0.1012273379303411   T   T   T
  0.8068078202568877  0.0884121756655081  0.0869682196149579   T   T   T
  0.6811802964904485  0.1681660837051205  0.0922318782667291   T   T   T
  0.8068336453989355  0.9226318593165670  0.0887821023100154   T   T   T
  0.6795314588762027  0.3335671733605787  0.0997526463252463   T   T   T
  0.8097616006580675  0.5908888672897683  0.1017858337133570   T   T   T
  0.6969289606436793  0.6812816467672544  0.1203665031155027   T   T   T
  0.8050801239001943  0.4221686018297756  0.0981237094814081   T   T   T
  0.6841228532624372  0.8391075318714599  0.1028201728656043   T   T   T
  0.4146718195051246  0.6848903568901609  0.1126683701004529   T   T   T
  0.5565521535708897  0.4043578860733702  0.1094195003550450   T   T   T
  0.3044023545052552  0.9250931542359623  0.0892113447957150   T   T   T
  0.5537091918312337  0.5866350591875478  0.1610098534020447   T   T   T
 
  0.00000000E+00  0.00000000E+00  0.00000000E+00
  0.00000000E+00  0.00000000E+00  0.00000000E+00
  0.00000000E+00  0.00000000E+00  0.00000000E+00
  0.00000000E+00  0.00000000E+00  0.00000000E+00
  0.00000000E+00  0.00000000E+00  0.00000000E+00
  0.00000000E+00  0.00000000E+00  0.00000000E+00
  0.00000000E+00  0.00000000E+00  0.00000000E+00
  0.00000000E+00  0.00000000E+00  0.00000000E+00
  0.00000000E+00  0.00000000E+00  0.00000000E+00
  0.00000000E+00  0.00000000E+00  0.00000000E+00
  0.00000000E+00  0.00000000E+00  0.00000000E+00
  0.00000000E+00  0.00000000E+00  0.00000000E+00
  0.00000000E+00  0.00000000E+00  0.00000000E+00
  0.00000000E+00  0.00000000E+00  0.00000000E+00
  0.00000000E+00  0.00000000E+00  0.00000000E+00
  0.00000000E+00  0.00000000E+00  0.00000000E+00
  0.00000000E+00  0.00000000E+00  0.00000000E+00
  0.00000000E+00  0.00000000E+00  0.00000000E+00
  0.00000000E+00  0.00000000E+00  0.00000000E+00
  0.00000000E+00  0.00000000E+00  0.00000000E+00
  0.00000000E+00  0.00000000E+00  0.00000000E+00
  0.00000000E+00  0.00000000E+00  0.00000000E+00
  0.00000000E+00  0.00000000E+00  0.00000000E+00
  0.00000000E+00  0.00000000E+00  0.00000000E+00
  0.00000000E+00  0.00000000E+00  0.00000000E+00
  0.00000000E+00  0.00000000E+00  0.00000000E+00
  0.00000000E+00  0.00000000E+00  0.00000000E+00
  0.00000000E+00  0.00000000E+00  0.00000000E+00
  0.00000000E+00  0.00000000E+00  0.00000000E+00
  0.00000000E+00  0.00000000E+00  0.00000000E+00
  0.00000000E+00  0.00000000E+00  0.00000000E+00
  0.00000000E+00  0.00000000E+00  0.00000000E+00
